c Generated map
c Size: 9 * 9, weights in range: 1 to 10, walls: True, with ratio 0.1
c dim 4 of 8
c
p sp 81 114
c graph contains 81 nodes and 114 arcs
c
a 1 10 5
a 10 1 5
a 1 2 2
a 2 1 2
a 2 3 3
a 3 2 3
a 3 12 6
a 12 3 6
a 3 4 4
a 4 3 4
a 4 13 10
a 13 4 10
a 4 5 10
a 5 4 10
a 5 14 1
a 14 5 1
a 5 6 9
a 6 5 9
a 6 7 7
a 7 6 7
a 7 16 7
a 16 7 7
a 7 8 7
a 8 7 7
a 8 9 4
a 9 8 4
a 9 18 1
a 18 9 1
a 10 19 9
a 19 10 9
a 12 21 2
a 21 12 2
a 12 13 9
a 13 12 9
a 13 22 10
a 22 13 10
a 13 14 8
a 14 13 8
a 14 23 4
a 23 14 4
a 18 27 5
a 27 18 5
a 19 28 3
a 28 19 3
a 19 20 1
a 20 19 1
a 20 29 2
a 29 20 2
a 20 21 2
a 21 20 2
a 21 30 6
a 30 21 6
a 21 22 1
a 22 21 1
a 22 23 7
a 23 22 7
a 23 32 9
a 32 23 9
a 23 24 7
a 24 23 7
a 24 33 5
a 33 24 5
a 26 27 9
a 27 26 9
a 27 36 2
a 36 27 2
a 28 29 4
a 29 28 4
a 29 38 5
a 38 29 5
a 29 30 10
a 30 29 10
a 30 39 10
a 39 30 10
a 32 41 5
a 41 32 5
a 32 33 2
a 33 32 2
a 33 42 2
a 42 33 2
a 33 34 10
a 34 33 10
a 34 43 7
a 43 34 7
a 36 45 2
a 45 36 2
a 38 47 7
a 47 38 7
a 38 39 8
a 39 38 8
a 39 48 8
a 48 39 8
a 39 40 5
a 40 39 5
a 40 49 7
a 49 40 7
a 40 41 1
a 41 40 1
a 41 50 7
a 50 41 7
a 41 42 2
a 42 41 2
a 42 51 6
a 51 42 6
a 42 43 2
a 43 42 2
a 43 52 10
a 52 43 10
a 43 44 9
a 44 43 9
a 44 53 6
a 53 44 6
a 44 45 5
a 45 44 5
a 45 54 6
a 54 45 6
a 46 55 10
a 55 46 10
a 46 47 1
a 47 46 1
a 47 56 2
a 56 47 2
a 47 48 1
a 48 47 1
a 48 57 1
a 57 48 1
a 48 49 8
a 49 48 8
a 49 58 8
a 58 49 8
a 49 50 6
a 50 49 6
a 50 59 9
a 59 50 9
a 50 51 3
a 51 50 3
a 51 60 2
a 60 51 2
a 51 52 6
a 52 51 6
a 52 61 5
a 61 52 5
a 52 53 2
a 53 52 2
a 53 62 8
a 62 53 8
a 53 54 6
a 54 53 6
a 54 63 8
a 63 54 8
a 55 56 3
a 56 55 3
a 56 65 5
a 65 56 5
a 56 57 2
a 57 56 2
a 57 66 6
a 66 57 6
a 57 58 9
a 58 57 9
a 58 67 1
a 67 58 1
a 58 59 2
a 59 58 2
a 59 68 3
a 68 59 3
a 59 60 7
a 60 59 7
a 60 69 5
a 69 60 5
a 60 61 9
a 61 60 9
a 61 70 2
a 70 61 2
a 61 62 3
a 62 61 3
a 62 71 7
a 71 62 7
a 62 63 3
a 63 62 3
a 63 72 9
a 72 63 9
a 65 74 4
a 74 65 4
a 65 66 4
a 66 65 4
a 66 75 5
a 75 66 5
a 66 67 6
a 67 66 6
a 67 76 5
a 76 67 5
a 67 68 8
a 68 67 8
a 68 77 6
a 77 68 6
a 68 69 4
a 69 68 4
a 69 78 10
a 78 69 10
a 69 70 7
a 70 69 7
a 70 79 1
a 79 70 1
a 70 71 9
a 71 70 9
a 71 80 2
a 80 71 2
a 71 72 2
a 72 71 2
a 72 81 2
a 81 72 2
a 73 74 2
a 74 73 2
a 74 75 6
a 75 74 6
a 75 76 4
a 76 75 4
a 76 77 7
a 77 76 7
a 77 78 7
a 78 77 7
a 78 79 5
a 79 78 5
a 79 80 5
a 80 79 5
a 80 81 4
a 81 80 4
